ilp_joint_2/output/meiosis_ilp.lp
Maximize
  0.00536539544959302 Z_33_0_0 + 0.00284153026964706 Z_33_0_1
   + 0.0092741711442826 Z_33_0_2 + 0.3757580300664298 Z_33_0_3
   + 0.00397222336124559 Z_33_0_4 + 0.1845060301493864 Z_533_0_0
   + 0.0214559688661709 Z_533_0_1 + 0.00839863464584978 Z_533_0_2
   + 0.3534306966372498 Z_533_0_3 + 0.0156856797516097 Z_533_0_4
   + 0.00507076398445866 Z_533_1_0 + 0.00574225864930833 Z_533_1_1
   + 0.2819175191807701 Z_533_1_2 + 0.00402848369830427 Z_533_1_3
   + 0.0130674263233496 Z_533_1_4 + 0.0015593801791825 Z_228_0_0
   + 0.00419089569617642 Z_228_0_1 + 0.0243436504742068 Z_228_0_2
   + 0.3063925975749558 Z_228_0_3 + 0.00263509049307215 Z_228_0_4
   + 0.000397854 Z_203_0_0 + 0.0156627320132355 Z_203_0_1
   + 0.1839972585598648 Z_203_0_2 + 0.3323471352723434 Z_203_0_3
   + 0.00131381774211986 Z_203_0_4 + [
   1.478260869565217 Z_33_0_0 * Z_533_1_0
   + 0.0192165516596051 Z_33_0_0 * Z_228_0_0
   + 1.478260869565217 Z_33_0_1 * Z_533_1_1
   + 0.0192165516596051 Z_33_0_1 * Z_228_0_1
   + 1.478260869565217 Z_33_0_2 * Z_533_1_2
   + 0.0192165516596051 Z_33_0_2 * Z_228_0_2
   + 1.478260869565217 Z_33_0_3 * Z_533_1_3
   + 0.0192165516596051 Z_33_0_3 * Z_228_0_3
   + 1.478260869565217 Z_33_0_4 * Z_533_1_4
   + 0.0192165516596051 Z_33_0_4 * Z_228_0_4
   + 1.73695e-08 Z_533_1_0 * Z_228_0_0 + 1.73695e-08 Z_533_1_1 * Z_228_0_1
   + 1.73695e-08 Z_533_1_2 * Z_228_0_2 + 1.73695e-08 Z_533_1_3 * Z_228_0_3
   + 1.73695e-08 Z_533_1_4 * Z_228_0_4
   + 0.3153029755992517 Z_228_0_0 * Z_203_0_0
   + 0.3153029755992517 Z_228_0_1 * Z_203_0_1
   + 0.3153029755992517 Z_228_0_2 * Z_203_0_2
   + 0.3153029755992517 Z_228_0_3 * Z_203_0_3
   + 0.3153029755992517 Z_228_0_4 * Z_203_0_4 ] / 2 
Subject To
 constraint1_330: Z_33_0_0 + Z_33_0_1 + Z_33_0_2 + Z_33_0_3 + Z_33_0_4
   <= 1
 constraint1_5330: Z_533_0_0 + Z_533_0_1 + Z_533_0_2 + Z_533_0_3
   + Z_533_0_4 <= 1
 constraint1_5331: Z_533_1_0 + Z_533_1_1 + Z_533_1_2 + Z_533_1_3
   + Z_533_1_4 <= 1
 constraint1_2280: Z_228_0_0 + Z_228_0_1 + Z_228_0_2 + Z_228_0_3
   + Z_228_0_4 <= 1
 constraint1_2030: Z_203_0_0 + Z_203_0_1 + Z_203_0_2 + Z_203_0_3
   + Z_203_0_4 <= 1
 constraint2_330: Z_33_0_0 <= 1
 constraint2_331: Z_33_0_1 <= 1
 constraint2_332: Z_33_0_2 <= 1
 constraint2_333: Z_33_0_3 <= 1
 constraint2_334: Z_33_0_4 <= 1
 constraint2_5330: Z_533_0_0 + Z_533_1_0 <= 1
 constraint2_5331: Z_533_0_1 + Z_533_1_1 <= 1
 constraint2_5332: Z_533_0_2 + Z_533_1_2 <= 1
 constraint2_5333: Z_533_0_3 + Z_533_1_3 <= 1
 constraint2_5334: Z_533_0_4 + Z_533_1_4 <= 1
 constraint2_2280: Z_228_0_0 <= 1
 constraint2_2281: Z_228_0_1 <= 1
 constraint2_2282: Z_228_0_2 <= 1
 constraint2_2283: Z_228_0_3 <= 1
 constraint2_2284: Z_228_0_4 <= 1
 constraint2_2030: Z_203_0_0 <= 1
 constraint2_2031: Z_203_0_1 <= 1
 constraint2_2032: Z_203_0_2 <= 1
 constraint2_2033: Z_203_0_3 <= 1
 constraint2_2034: Z_203_0_4 <= 1
Bounds
Binaries
 Z_33_0_0 Z_33_0_1 Z_33_0_2 Z_33_0_3 Z_33_0_4 Z_533_0_0 Z_533_0_1 Z_533_0_2
 Z_533_0_3 Z_533_0_4 Z_533_1_0 Z_533_1_1 Z_533_1_2 Z_533_1_3 Z_533_1_4
 Z_228_0_0 Z_228_0_1 Z_228_0_2 Z_228_0_3 Z_228_0_4 Z_203_0_0 Z_203_0_1
 Z_203_0_2 Z_203_0_3 Z_203_0_4
End
