ilp_joint_2/output/meiosis_ilp.mps
NAME meiosis_srl_ilp
* Max problem is converted into Min one
ROWS
 N  OBJ
 L  constraint1_330
 L  constraint1_5330
 L  constraint1_5331
 L  constraint1_2280
 L  constraint1_2030
 L  constraint2_330
 L  constraint2_331
 L  constraint2_332
 L  constraint2_333
 L  constraint2_334
 L  constraint2_5330
 L  constraint2_5331
 L  constraint2_5332
 L  constraint2_5333
 L  constraint2_5334
 L  constraint2_2280
 L  constraint2_2281
 L  constraint2_2282
 L  constraint2_2283
 L  constraint2_2284
 L  constraint2_2030
 L  constraint2_2031
 L  constraint2_2032
 L  constraint2_2033
 L  constraint2_2034
COLUMNS
    MARKER    'MARKER'                 'INTORG'
    Z_33_0_0  OBJ       -5.3653954495930245e-03
    Z_33_0_0  constraint1_330  1
    Z_33_0_0  constraint2_330  1
    Z_33_0_1  OBJ       -2.8415302696470635e-03
    Z_33_0_1  constraint1_330  1
    Z_33_0_1  constraint2_331  1
    Z_33_0_2  OBJ       -9.2741711442825992e-03
    Z_33_0_2  constraint1_330  1
    Z_33_0_2  constraint2_332  1
    Z_33_0_3  OBJ       -3.7575803006642983e-01
    Z_33_0_3  constraint1_330  1
    Z_33_0_3  constraint2_333  1
    Z_33_0_4  OBJ       -3.9722233612455859e-03
    Z_33_0_4  constraint1_330  1
    Z_33_0_4  constraint2_334  1
    Z_533_0_0  OBJ       -1.8450603014938644e-01
    Z_533_0_0  constraint1_5330  1
    Z_533_0_0  constraint2_5330  1
    Z_533_0_1  OBJ       -2.1455968866170905e-02
    Z_533_0_1  constraint1_5330  1
    Z_533_0_1  constraint2_5331  1
    Z_533_0_2  OBJ       -8.3986346458497750e-03
    Z_533_0_2  constraint1_5330  1
    Z_533_0_2  constraint2_5332  1
    Z_533_0_3  OBJ       -3.5343069663724980e-01
    Z_533_0_3  constraint1_5330  1
    Z_533_0_3  constraint2_5333  1
    Z_533_0_4  OBJ       -1.5685679751609671e-02
    Z_533_0_4  constraint1_5330  1
    Z_533_0_4  constraint2_5334  1
    Z_533_1_0  OBJ       -5.0707639844586594e-03
    Z_533_1_0  constraint1_5331  1
    Z_533_1_0  constraint2_5330  1
    Z_533_1_1  OBJ       -5.7422586493083294e-03
    Z_533_1_1  constraint1_5331  1
    Z_533_1_1  constraint2_5331  1
    Z_533_1_2  OBJ       -2.8191751918077013e-01
    Z_533_1_2  constraint1_5331  1
    Z_533_1_2  constraint2_5332  1
    Z_533_1_3  OBJ       -4.0284836983042749e-03
    Z_533_1_3  constraint1_5331  1
    Z_533_1_3  constraint2_5333  1
    Z_533_1_4  OBJ       -1.3067426323349562e-02
    Z_533_1_4  constraint1_5331  1
    Z_533_1_4  constraint2_5334  1
    Z_228_0_0  OBJ       -1.5593801791825013e-03
    Z_228_0_0  constraint1_2280  1
    Z_228_0_0  constraint2_2280  1
    Z_228_0_1  OBJ       -4.1908956961764221e-03
    Z_228_0_1  constraint1_2280  1
    Z_228_0_1  constraint2_2281  1
    Z_228_0_2  OBJ       -2.4343650474206752e-02
    Z_228_0_2  constraint1_2280  1
    Z_228_0_2  constraint2_2282  1
    Z_228_0_3  OBJ       -3.0639259757495585e-01
    Z_228_0_3  constraint1_2280  1
    Z_228_0_3  constraint2_2283  1
    Z_228_0_4  OBJ       -2.6350904930721453e-03
    Z_228_0_4  constraint1_2280  1
    Z_228_0_4  constraint2_2284  1
    Z_203_0_0  OBJ       -3.9785397761493702e-04
    Z_203_0_0  constraint1_2030  1
    Z_203_0_0  constraint2_2030  1
    Z_203_0_1  OBJ       -1.5662732013235536e-02
    Z_203_0_1  constraint1_2030  1
    Z_203_0_1  constraint2_2031  1
    Z_203_0_2  OBJ       -1.8399725855986482e-01
    Z_203_0_2  constraint1_2030  1
    Z_203_0_2  constraint2_2032  1
    Z_203_0_3  OBJ       -3.3234713527234339e-01
    Z_203_0_3  constraint1_2030  1
    Z_203_0_3  constraint2_2033  1
    Z_203_0_4  OBJ       -1.3138177421198605e-03
    Z_203_0_4  constraint1_2030  1
    Z_203_0_4  constraint2_2034  1
    MARKER    'MARKER'                 'INTEND'
RHS
    RHS1      constraint1_330  1
    RHS1      constraint1_5330  1
    RHS1      constraint1_5331  1
    RHS1      constraint1_2280  1
    RHS1      constraint1_2030  1
    RHS1      constraint2_330  1
    RHS1      constraint2_331  1
    RHS1      constraint2_332  1
    RHS1      constraint2_333  1
    RHS1      constraint2_334  1
    RHS1      constraint2_5330  1
    RHS1      constraint2_5331  1
    RHS1      constraint2_5332  1
    RHS1      constraint2_5333  1
    RHS1      constraint2_5334  1
    RHS1      constraint2_2280  1
    RHS1      constraint2_2281  1
    RHS1      constraint2_2282  1
    RHS1      constraint2_2283  1
    RHS1      constraint2_2284  1
    RHS1      constraint2_2030  1
    RHS1      constraint2_2031  1
    RHS1      constraint2_2032  1
    RHS1      constraint2_2033  1
    RHS1      constraint2_2034  1
BOUNDS
 UP BND1      Z_33_0_0  1
 UP BND1      Z_33_0_1  1
 UP BND1      Z_33_0_2  1
 UP BND1      Z_33_0_3  1
 UP BND1      Z_33_0_4  1
 UP BND1      Z_533_0_0  1
 UP BND1      Z_533_0_1  1
 UP BND1      Z_533_0_2  1
 UP BND1      Z_533_0_3  1
 UP BND1      Z_533_0_4  1
 UP BND1      Z_533_1_0  1
 UP BND1      Z_533_1_1  1
 UP BND1      Z_533_1_2  1
 UP BND1      Z_533_1_3  1
 UP BND1      Z_533_1_4  1
 UP BND1      Z_228_0_0  1
 UP BND1      Z_228_0_1  1
 UP BND1      Z_228_0_2  1
 UP BND1      Z_228_0_3  1
 UP BND1      Z_228_0_4  1
 UP BND1      Z_203_0_0  1
 UP BND1      Z_203_0_1  1
 UP BND1      Z_203_0_2  1
 UP BND1      Z_203_0_3  1
 UP BND1      Z_203_0_4  1
QUADOBJ
    Z_33_0_0  Z_533_1_0  -7.3913043478260865e-01
    Z_33_0_0  Z_228_0_0  -9.6082758298025716e-03
    Z_33_0_1  Z_533_1_1  -7.3913043478260865e-01
    Z_33_0_1  Z_228_0_1  -9.6082758298025716e-03
    Z_33_0_2  Z_533_1_2  -7.3913043478260865e-01
    Z_33_0_2  Z_228_0_2  -9.6082758298025716e-03
    Z_33_0_3  Z_533_1_3  -7.3913043478260865e-01
    Z_33_0_3  Z_228_0_3  -9.6082758298025716e-03
    Z_33_0_4  Z_533_1_4  -7.3913043478260865e-01
    Z_33_0_4  Z_228_0_4  -9.6082758298025716e-03
    Z_533_1_0  Z_228_0_0  -8.6847524482748033e-09
    Z_533_1_1  Z_228_0_1  -8.6847524482748033e-09
    Z_533_1_2  Z_228_0_2  -8.6847524482748033e-09
    Z_533_1_3  Z_228_0_3  -8.6847524482748033e-09
    Z_533_1_4  Z_228_0_4  -8.6847524482748033e-09
    Z_228_0_0  Z_203_0_0  -1.5765148779962584e-01
    Z_228_0_1  Z_203_0_1  -1.5765148779962584e-01
    Z_228_0_2  Z_203_0_2  -1.5765148779962584e-01
    Z_228_0_3  Z_203_0_3  -1.5765148779962584e-01
    Z_228_0_4  Z_203_0_4  -1.5765148779962584e-01
ENDATA
