ilp_joint_2/output/meiosis_ilp.sol
# Solution for model meiosis_srl_ilp
# Objective value = 2.1801440423918361e+00
Z_33_0_0 0
Z_33_0_1 0
Z_33_0_2 1
Z_33_0_3 0
Z_33_0_4 0
Z_533_0_0 0
Z_533_0_1 0
Z_533_0_2 0
Z_533_0_3 1
Z_533_0_4 0
Z_533_1_0 0
Z_533_1_1 0
Z_533_1_2 1
Z_533_1_3 0
Z_533_1_4 0
Z_228_0_0 0
Z_228_0_1 0
Z_228_0_2 0
Z_228_0_3 1
Z_228_0_4 0
Z_203_0_0 0
Z_203_0_1 0
Z_203_0_2 0
Z_203_0_3 1
Z_203_0_4 0
